code_element,page_type,page_name,rev_1,rev_2,rev_3,rev_4,rev_5,rev_6,rev_7,rev_8,rev_9,rev_10,rev_11,rev_12,rev_13,rev_14,rev_15,rev_16,rev_17,rev_18,doc_link,source_link
CrossValidate,repo,README.md,6,6,6,6,6,6,6,6,6,6,6,6,6,6,6,6,6,6,https://github.com/google/ffcc/blob/bb34754be22f8c45fbb0be7e0d002acbeba3d305/README.md,https://github.com/google/ffcc/blob/2fa9e1316954dbd3913630b7d597927941b4dd32/internal/TuneParameters_Test.m#L25
CrossValidate(),repo,README.md,1,1,1,1,1,1,1,1,1,1,1,1,1,1,1,1,1,1,https://github.com/google/ffcc/blob/bb34754be22f8c45fbb0be7e0d002acbeba3d305/README.md,https://github.com/google/ffcc/blob/2fa9e1316954dbd3913630b7d597927941b4dd32/internal/TuneParameters.m#L26
DUMP_EXHAUSTIVE_VISUALIZATION,repo,README.md,2,2,2,2,2,2,2,2,2,2,2,2,2,2,2,2,2,2,https://github.com/google/ffcc/blob/bb34754be22f8c45fbb0be7e0d002acbeba3d305/README.md,https://github.com/google/ffcc/blob/2fa9e1316954dbd3913630b7d597927941b4dd32/internal/PrivateConstants.m#L43
ErrorMetrics,repo,README.md,8,8,8,8,8,8,8,8,8,8,8,8,8,8,8,8,8,8,https://github.com/google/ffcc/blob/bb34754be22f8c45fbb0be7e0d002acbeba3d305/README.md,https://github.com/google/ffcc/blob/2fa9e1316954dbd3913630b7d597927941b4dd32/internal/TuneParameters_Test.m#L68
FFCC,repo,README.md,46,6,0,0,0,0,0,0,6,6,6,10,10,22,22,23,20,10,https://github.com/google/ffcc/blob/bb34754be22f8c45fbb0be7e0d002acbeba3d305/README.md,https://github.com/google/ffcc/blob/2fa9e1316954dbd3913630b7d597927941b4dd32/scripts/gehler_shi_table.tex#L27
PNG,repo,README.md,4,4,0,0,0,0,0,0,0,0,6944,6948,6948,6948,6948,6948,6948,6948,https://github.com/google/ffcc/blob/bb34754be22f8c45fbb0be7e0d002acbeba3d305/README.md,https://github.com/google/ffcc/blob/2fa9e1316954dbd3913630b7d597927941b4dd32/scripts/ChengImportData.m#L55
Train(),repo,README.md,2,2,2,2,2,2,2,2,2,2,2,2,2,2,2,2,2,2,https://github.com/google/ffcc/blob/bb34754be22f8c45fbb0be7e0d002acbeba3d305/README.md,https://github.com/google/ffcc/blob/2fa9e1316954dbd3913630b7d597927941b4dd32/internal/PrivateConstants.m#L19
Tune(),repo,README.md,22,22,22,22,22,21,21,21,21,21,21,21,21,21,21,21,21,21,https://github.com/google/ffcc/blob/bb34754be22f8c45fbb0be7e0d002acbeba3d305/README.md,https://github.com/google/ffcc/blob/2fa9e1316954dbd3913630b7d597927941b4dd32/projects/GehlerShiThumb/GehlerShiThumbHyperparams.m#L2
Visualize(),repo,README.md,2,2,2,2,2,2,2,2,2,2,2,2,2,2,2,2,2,2,https://github.com/google/ffcc/blob/bb34754be22f8c45fbb0be7e0d002acbeba3d305/README.md,https://github.com/google/ffcc/blob/2fa9e1316954dbd3913630b7d597927941b4dd32/internal/PrivateConstants.m#L25
minFunc,repo,README.md,-,-,-,-,-,-,-,-,2,2,2,2,2,2,2,2,2,2,https://github.com/google/ffcc/blob/bb34754be22f8c45fbb0be7e0d002acbeba3d305/README.md,https://github.com/google/ffcc/blob/2fa9e1316954dbd3913630b7d597927941b4dd32/internal/TrainModel.m#L18
params.TRAINING,repo,README.md,117,117,113,113,113,108,108,108,108,108,108,108,108,108,108,108,108,108,https://github.com/google/ffcc/blob/bb34754be22f8c45fbb0be7e0d002acbeba3d305/README.md,https://github.com/google/ffcc/blob/2fa9e1316954dbd3913630b7d597927941b4dd32/projects/GehlerShiThumb/GehlerShiThumbConstants.m#L25
train_folder,repo,README.md,1,1,1,1,1,1,1,1,1,1,1,1,1,1,1,1,1,1,https://github.com/google/ffcc/blob/bb34754be22f8c45fbb0be7e0d002acbeba3d305/README.md,https://github.com/google/ffcc/blob/2fa9e1316954dbd3913630b7d597927941b4dd32/internal/CrossValidate.m#L48
vonmises_nll,repo,README.md,23,23,23,23,23,22,22,22,22,22,22,22,22,22,22,22,22,22,https://github.com/google/ffcc/blob/bb34754be22f8c45fbb0be7e0d002acbeba3d305/README.md,https://github.com/google/ffcc/blob/2fa9e1316954dbd3913630b7d597927941b4dd32/projects/GehlerShiThumb/GehlerShiThumbHyperparams.m#L41
